nN = 8;
nR = 48;
nH = 2;

a = [[21, 25, 18, 18, 21, 25, 22, 18, 18, 23, 17, 24, 16, 21, 24, 20, 23, 24, 23, 24, 19, 24, 21, 20, 25, 24, 22, 23, 18, 25, 20, 17, 17, 20, 17, 17, 23, 19, 18, 15, 19, 24, 24, 25, 16, 23, 17, 18], [19, 16, 22, 23, 24, 21, 18, 18, 17, 17, 25, 21, 24, 17, 17, 22, 15, 24, 18, 21, 21, 23, 19, 24, 19, 22, 17, 18, 24, 24, 21, 24, 16, 21, 23, 22, 19, 20, 24, 20, 19, 21, 24, 25, 22, 15, 19, 16], [23, 19, 16, 20, 20, 18, 24, 15, 24, 17, 24, 21, 15, 19, 22, 20, 20, 24, 20, 16, 17, 19, 18, 18, 17, 24, 23, 15, 16, 22, 25, 24, 22, 16, 25, 20, 16, 20, 18, 15, 24, 24, 15, 24, 23, 24, 18, 25], [16, 16, 21, 22, 20, 22, 22, 19, 25, 16, 18, 19, 22, 19, 18, 22, 25, 20, 23, 17, 18, 21, 16, 20, 16, 15, 21, 20, 18, 16, 23, 16, 22, 22, 18, 22, 17, 15, 15, 18, 15, 20, 15, 21, 19, 23, 17, 25], [16, 15, 22, 23, 16, 23, 20, 20, 23, 16, 19, 16, 18, 20, 18, 22, 16, 15, 22, 24, 24, 21, 22, 16, 19, 22, 17, 20, 20, 21, 15, 15, 21, 16, 16, 15, 15, 16, 24, 25, 19, 24, 22, 22, 20, 19, 17, 24], [24, 19, 21, 21, 25, 24, 20, 25, 21, 24, 18, 21, 21, 15, 23, 24, 18, 23, 20, 25, 22, 20, 17, 25, 16, 22, 19, 18, 22, 25, 16, 16, 22, 23, 22, 23, 16, 21, 17, 21, 20, 16, 15, 23, 24, 24, 18, 22], [24, 23, 18, 22, 25, 18, 16, 21, 24, 25, 18, 16, 16, 23, 25, 15, 16, 19, 18, 20, 19, 18, 24, 18, 22, 16, 25, 25, 22, 18, 16, 17, 15, 25, 24, 23, 23, 21, 25, 22, 24, 19, 16, 21, 16, 15, 16, 25], [15, 21, 23, 24, 17, 23, 23, 20, 18, 17, 16, 25, 16, 22, 20, 17, 21, 18, 17, 17, 18, 24, 24, 24, 24, 18, 20, 21, 23, 24, 19, 18, 18, 19, 22, 16, 23, 16, 17, 22, 18, 21, 24, 25, 25, 22, 18, 19]];
c = [[[0, 0, 0, 0, 0, 0, 0, 0, 0, 0, 0, 0, 0, 0, 0, 0, 0, 0, 0, 0, 0, 0, 0, 0, 0, 0, 0, 0, 0, 0, 0, 0, 0, 0, 0, 0, 0, 0, 0, 0, 0, 0, 0, 0, 0, 0, 0, 0], [31, 36, 50, 35, 36, 34, 42, 32, 42, 46, 46, 32, 37, 38, 37, 44, 36, 46, 33, 40, 46, 31, 45, 37, 33, 30, 43, 35, 49, 42, 50, 33, 31, 45, 47, 41, 43, 34, 41, 47, 31, 45, 34, 38, 50, 49, 30, 42], [48, 31, 50, 41, 35, 33, 34, 46, 38, 37, 36, 41, 43, 43, 43, 32, 33, 42, 36, 39, 39, 49, 41, 35, 49, 39, 39, 34, 47, 36, 44, 39, 35, 49, 38, 35, 43, 40, 45, 50, 44, 35, 41, 46, 48, 41, 48, 35], [45, 42, 37, 48, 47, 40, 31, 43, 36, 50, 50, 44, 41, 34, 33, 47, 45, 34, 35, 41, 33, 47, 31, 38, 34, 43, 37, 34, 33, 39, 36, 38, 38, 46, 46, 33, 47, 38, 45, 37, 49, 38, 35, 36, 47, 35, 43, 44], [42, 43, 46, 47, 32, 39, 40, 30, 31, 36, 39, 45, 35, 41, 32, 39, 38, 48, 50, 44, 37, 38, 47, 33, 46, 30, 48, 44, 45, 34, 40, 35, 33, 32, 36, 45, 45, 31, 39, 43, 35, 48, 36, 36, 35, 49, 49, 35], [31, 46, 38, 45, 36, 47, 50, 32, 35, 47, 43, 35, 42, 39, 38, 39, 36, 35, 34, 50, 36, 48, 48, 39, 36, 50, 40, 47, 31, 49, 39, 35, 42, 32, 42, 33, 45, 37, 50, 43, 43, 34, 46, 49, 37, 42, 32, 38], [41, 43, 37, 41, 42, 30, 31, 32, 47, 36, 30, 36, 37, 43, 40, 34, 37, 43, 41, 50, 44, 31, 46, 35, 41, 34, 49, 40, 46, 30, 32, 43, 49, 41, 37, 37, 42, 50, 34, 35, 32, 33, 31, 37, 46, 45, 48, 49], [49, 50, 43, 43, 44, 30, 45, 50, 34, 45, 46, 45, 42, 41, 38, 45, 34, 44, 31, 30, 46, 36, 42, 50, 47, 45, 42, 44, 31, 49, 41, 33, 32, 46, 38, 48, 34, 42, 31, 36, 40, 34, 42, 36, 41, 33, 41, 37]], [[0, 0, 0, 0, 0, 0, 0, 0, 0, 0, 0, 0, 0, 0, 0, 0, 0, 0, 0, 0, 0, 0, 0, 0, 0, 0, 0, 0, 0, 0, 0, 0, 0, 0, 0, 0, 0, 0, 0, 0, 0, 0, 0, 0, 0, 0, 0, 0], [0, 0, 0, 0, 0, 0, 0, 0, 0, 0, 0, 0, 0, 0, 0, 0, 0, 0, 0, 0, 0, 0, 0, 0, 0, 0, 0, 0, 0, 0, 0, 0, 0, 0, 0, 0, 0, 0, 0, 0, 0, 0, 0, 0, 0, 0, 0, 0], [48, 37, 44, 44, 30, 49, 43, 43, 36, 41, 46, 46, 37, 47, 45, 42, 34, 35, 38, 39, 46, 47, 33, 41, 37, 41, 32, 30, 47, 47, 42, 45, 37, 38, 41, 31, 49, 44, 45, 33, 49, 35, 38, 47, 44, 34, 42, 43], [47, 44, 41, 40, 49, 48, 43, 34, 47, 43, 45, 37, 35, 37, 50, 43, 36, 31, 31, 31, 30, 48, 42, 46, 30, 36, 45, 33, 33, 47, 44, 40, 44, 31, 31, 50, 32, 30, 31, 30, 47, 30, 38, 43, 40, 46, 32, 44], [32, 32, 39, 30, 43, 41, 35, 42, 45, 49, 32, 38, 38, 45, 30, 46, 46, 39, 49, 36, 40, 31, 49, 33, 39, 30, 35, 38, 40, 33, 45, 43, 44, 44, 46, 37, 33, 37, 47, 45, 41, 46, 33, 33, 46, 32, 45, 38], [41, 35, 32, 47, 44, 45, 38, 34, 48, 37, 37, 37, 43, 50, 42, 33, 42, 32, 41, 39, 45, 44, 49, 33, 33, 39, 44, 50, 41, 46, 49, 44, 37, 31, 40, 44, 38, 33, 31, 49, 40, 47, 35, 44, 35, 42, 41, 40], [48, 34, 45, 31, 44, 38, 45, 32, 46, 45, 50, 40, 36, 35, 50, 39, 40, 34, 37, 36, 48, 33, 34, 46, 44, 38, 35, 33, 38, 41, 31, 37, 49, 44, 38, 39, 30, 33, 45, 50, 37, 40, 44, 37, 35, 42, 47, 40], [30, 34, 45, 44, 36, 43, 36, 31, 32, 38, 48, 36, 42, 33, 45, 50, 34, 49, 38, 37, 36, 45, 32, 38, 46, 34, 40, 37, 33, 37, 39, 50, 41, 34, 43, 42, 47, 31, 33, 34, 46, 45, 38, 48, 34, 38, 35, 32]], [[0, 0, 0, 0, 0, 0, 0, 0, 0, 0, 0, 0, 0, 0, 0, 0, 0, 0, 0, 0, 0, 0, 0, 0, 0, 0, 0, 0, 0, 0, 0, 0, 0, 0, 0, 0, 0, 0, 0, 0, 0, 0, 0, 0, 0, 0, 0, 0], [0, 0, 0, 0, 0, 0, 0, 0, 0, 0, 0, 0, 0, 0, 0, 0, 0, 0, 0, 0, 0, 0, 0, 0, 0, 0, 0, 0, 0, 0, 0, 0, 0, 0, 0, 0, 0, 0, 0, 0, 0, 0, 0, 0, 0, 0, 0, 0], [0, 0, 0, 0, 0, 0, 0, 0, 0, 0, 0, 0, 0, 0, 0, 0, 0, 0, 0, 0, 0, 0, 0, 0, 0, 0, 0, 0, 0, 0, 0, 0, 0, 0, 0, 0, 0, 0, 0, 0, 0, 0, 0, 0, 0, 0, 0, 0], [43, 45, 31, 44, 46, 46, 38, 45, 34, 39, 31, 43, 42, 47, 32, 47, 50, 45, 31, 43, 42, 32, 49, 49, 35, 36, 31, 35, 49, 42, 38, 41, 31, 49, 41, 38, 39, 34, 50, 50, 43, 37, 32, 30, 37, 34, 49, 43], [47, 35, 44, 40, 33, 36, 43, 42, 47, 40, 36, 31, 31, 40, 49, 43, 36, 41, 39, 32, 50, 35, 37, 34, 33, 46, 36, 40, 36, 34, 33, 34, 49, 45, 40, 30, 42, 39, 42, 30, 34, 50, 30, 50, 50, 36, 45, 31], [32, 31, 30, 37, 38, 50, 35, 40, 48, 48, 30, 45, 42, 39, 48, 35, 31, 44, 45, 49, 41, 47, 50, 49, 36, 41, 45, 44, 35, 41, 40, 50, 34, 40, 40, 34, 43, 35, 39, 36, 30, 46, 44, 32, 40, 40, 41, 30], [34, 45, 40, 31, 30, 34, 40, 30, 42, 40, 49, 42, 46, 37, 47, 42, 39, 49, 47, 48, 47, 43, 47, 42, 44, 44, 42, 38, 45, 31, 37, 41, 46, 38, 48, 32, 36, 35, 32, 30, 44, 50, 45, 45, 34, 30, 39, 32], [33, 39, 50, 31, 36, 31, 44, 38, 43, 46, 37, 40, 35, 44, 50, 46, 33, 47, 37, 34, 45, 35, 31, 47, 42, 34, 31, 39, 50, 37, 34, 49, 46, 32, 47, 47, 32, 45, 40, 42, 38, 38, 30, 33, 38, 38, 50, 48]], [[0, 0, 0, 0, 0, 0, 0, 0, 0, 0, 0, 0, 0, 0, 0, 0, 0, 0, 0, 0, 0, 0, 0, 0, 0, 0, 0, 0, 0, 0, 0, 0, 0, 0, 0, 0, 0, 0, 0, 0, 0, 0, 0, 0, 0, 0, 0, 0], [0, 0, 0, 0, 0, 0, 0, 0, 0, 0, 0, 0, 0, 0, 0, 0, 0, 0, 0, 0, 0, 0, 0, 0, 0, 0, 0, 0, 0, 0, 0, 0, 0, 0, 0, 0, 0, 0, 0, 0, 0, 0, 0, 0, 0, 0, 0, 0], [0, 0, 0, 0, 0, 0, 0, 0, 0, 0, 0, 0, 0, 0, 0, 0, 0, 0, 0, 0, 0, 0, 0, 0, 0, 0, 0, 0, 0, 0, 0, 0, 0, 0, 0, 0, 0, 0, 0, 0, 0, 0, 0, 0, 0, 0, 0, 0], [0, 0, 0, 0, 0, 0, 0, 0, 0, 0, 0, 0, 0, 0, 0, 0, 0, 0, 0, 0, 0, 0, 0, 0, 0, 0, 0, 0, 0, 0, 0, 0, 0, 0, 0, 0, 0, 0, 0, 0, 0, 0, 0, 0, 0, 0, 0, 0], [42, 33, 40, 31, 33, 39, 31, 40, 49, 50, 40, 41, 42, 42, 45, 37, 30, 42, 37, 44, 47, 39, 30, 44, 38, 30, 46, 36, 38, 39, 38, 41, 46, 38, 50, 35, 45, 43, 34, 46, 48, 45, 43, 47, 50, 47, 46, 48], [39, 42, 36, 38, 42, 35, 50, 34, 38, 39, 50, 45, 49, 46, 42, 38, 43, 30, 32, 48, 40, 33, 41, 38, 49, 46, 32, 33, 38, 40, 43, 39, 46, 41, 42, 48, 43, 32, 38, 30, 32, 30, 37, 50, 38, 50, 47, 50], [33, 38, 34, 49, 34, 47, 44, 30, 30, 32, 32, 36, 42, 45, 41, 32, 30, 36, 44, 31, 38, 40, 39, 48, 36, 42, 44, 30, 32, 46, 50, 42, 39, 40, 43, 48, 31, 48, 38, 44, 30, 31, 48, 43, 36, 47, 45, 39], [47, 42, 45, 32, 40, 40, 38, 33, 50, 44, 41, 30, 41, 49, 33, 39, 42, 38, 50, 34, 33, 39, 47, 41, 31, 30, 40, 46, 49, 35, 42, 45, 38, 35, 37, 49, 41, 31, 42, 48, 32, 39, 38, 50, 49, 35, 45, 47]], [[0, 0, 0, 0, 0, 0, 0, 0, 0, 0, 0, 0, 0, 0, 0, 0, 0, 0, 0, 0, 0, 0, 0, 0, 0, 0, 0, 0, 0, 0, 0, 0, 0, 0, 0, 0, 0, 0, 0, 0, 0, 0, 0, 0, 0, 0, 0, 0], [0, 0, 0, 0, 0, 0, 0, 0, 0, 0, 0, 0, 0, 0, 0, 0, 0, 0, 0, 0, 0, 0, 0, 0, 0, 0, 0, 0, 0, 0, 0, 0, 0, 0, 0, 0, 0, 0, 0, 0, 0, 0, 0, 0, 0, 0, 0, 0], [0, 0, 0, 0, 0, 0, 0, 0, 0, 0, 0, 0, 0, 0, 0, 0, 0, 0, 0, 0, 0, 0, 0, 0, 0, 0, 0, 0, 0, 0, 0, 0, 0, 0, 0, 0, 0, 0, 0, 0, 0, 0, 0, 0, 0, 0, 0, 0], [0, 0, 0, 0, 0, 0, 0, 0, 0, 0, 0, 0, 0, 0, 0, 0, 0, 0, 0, 0, 0, 0, 0, 0, 0, 0, 0, 0, 0, 0, 0, 0, 0, 0, 0, 0, 0, 0, 0, 0, 0, 0, 0, 0, 0, 0, 0, 0], [0, 0, 0, 0, 0, 0, 0, 0, 0, 0, 0, 0, 0, 0, 0, 0, 0, 0, 0, 0, 0, 0, 0, 0, 0, 0, 0, 0, 0, 0, 0, 0, 0, 0, 0, 0, 0, 0, 0, 0, 0, 0, 0, 0, 0, 0, 0, 0], [38, 41, 50, 46, 45, 37, 46, 41, 37, 43, 37, 34, 32, 49, 34, 31, 30, 30, 34, 37, 34, 43, 30, 35, 39, 31, 32, 37, 48, 45, 35, 32, 49, 44, 30, 38, 36, 36, 38, 37, 44, 43, 50, 40, 34, 48, 43, 41], [36, 45, 35, 48, 32, 30, 40, 41, 47, 40, 42, 40, 46, 50, 42, 30, 30, 30, 43, 42, 43, 37, 34, 46, 39, 49, 32, 50, 32, 42, 32, 40, 40, 41, 33, 45, 41, 47, 39, 50, 35, 39, 44, 35, 46, 33, 47, 44], [35, 37, 48, 50, 45, 50, 42, 48, 33, 37, 48, 36, 43, 43, 34, 45, 42, 38, 47, 39, 33, 50, 35, 44, 36, 47, 44, 49, 48, 38, 35, 48, 42, 40, 34, 48, 40, 32, 49, 45, 31, 49, 40, 50, 40, 31, 43, 37]], [[0, 0, 0, 0, 0, 0, 0, 0, 0, 0, 0, 0, 0, 0, 0, 0, 0, 0, 0, 0, 0, 0, 0, 0, 0, 0, 0, 0, 0, 0, 0, 0, 0, 0, 0, 0, 0, 0, 0, 0, 0, 0, 0, 0, 0, 0, 0, 0], [0, 0, 0, 0, 0, 0, 0, 0, 0, 0, 0, 0, 0, 0, 0, 0, 0, 0, 0, 0, 0, 0, 0, 0, 0, 0, 0, 0, 0, 0, 0, 0, 0, 0, 0, 0, 0, 0, 0, 0, 0, 0, 0, 0, 0, 0, 0, 0], [0, 0, 0, 0, 0, 0, 0, 0, 0, 0, 0, 0, 0, 0, 0, 0, 0, 0, 0, 0, 0, 0, 0, 0, 0, 0, 0, 0, 0, 0, 0, 0, 0, 0, 0, 0, 0, 0, 0, 0, 0, 0, 0, 0, 0, 0, 0, 0], [0, 0, 0, 0, 0, 0, 0, 0, 0, 0, 0, 0, 0, 0, 0, 0, 0, 0, 0, 0, 0, 0, 0, 0, 0, 0, 0, 0, 0, 0, 0, 0, 0, 0, 0, 0, 0, 0, 0, 0, 0, 0, 0, 0, 0, 0, 0, 0], [0, 0, 0, 0, 0, 0, 0, 0, 0, 0, 0, 0, 0, 0, 0, 0, 0, 0, 0, 0, 0, 0, 0, 0, 0, 0, 0, 0, 0, 0, 0, 0, 0, 0, 0, 0, 0, 0, 0, 0, 0, 0, 0, 0, 0, 0, 0, 0], [0, 0, 0, 0, 0, 0, 0, 0, 0, 0, 0, 0, 0, 0, 0, 0, 0, 0, 0, 0, 0, 0, 0, 0, 0, 0, 0, 0, 0, 0, 0, 0, 0, 0, 0, 0, 0, 0, 0, 0, 0, 0, 0, 0, 0, 0, 0, 0], [36, 32, 31, 36, 48, 50, 34, 36, 48, 36, 44, 44, 39, 30, 36, 32, 42, 45, 35, 42, 50, 32, 32, 44, 31, 30, 34, 50, 33, 31, 46, 50, 37, 36, 49, 31, 30, 32, 31, 49, 31, 35, 42, 39, 42, 42, 41, 49], [38, 46, 47, 49, 39, 50, 30, 47, 35, 35, 45, 43, 50, 37, 39, 39, 41, 35, 45, 49, 36, 33, 32, 34, 49, 50, 41, 46, 33, 48, 40, 31, 36, 33, 37, 36, 39, 46, 44, 34, 46, 38, 31, 35, 41, 32, 36, 42]], [[0, 0, 0, 0, 0, 0, 0, 0, 0, 0, 0, 0, 0, 0, 0, 0, 0, 0, 0, 0, 0, 0, 0, 0, 0, 0, 0, 0, 0, 0, 0, 0, 0, 0, 0, 0, 0, 0, 0, 0, 0, 0, 0, 0, 0, 0, 0, 0], [0, 0, 0, 0, 0, 0, 0, 0, 0, 0, 0, 0, 0, 0, 0, 0, 0, 0, 0, 0, 0, 0, 0, 0, 0, 0, 0, 0, 0, 0, 0, 0, 0, 0, 0, 0, 0, 0, 0, 0, 0, 0, 0, 0, 0, 0, 0, 0], [0, 0, 0, 0, 0, 0, 0, 0, 0, 0, 0, 0, 0, 0, 0, 0, 0, 0, 0, 0, 0, 0, 0, 0, 0, 0, 0, 0, 0, 0, 0, 0, 0, 0, 0, 0, 0, 0, 0, 0, 0, 0, 0, 0, 0, 0, 0, 0], [0, 0, 0, 0, 0, 0, 0, 0, 0, 0, 0, 0, 0, 0, 0, 0, 0, 0, 0, 0, 0, 0, 0, 0, 0, 0, 0, 0, 0, 0, 0, 0, 0, 0, 0, 0, 0, 0, 0, 0, 0, 0, 0, 0, 0, 0, 0, 0], [0, 0, 0, 0, 0, 0, 0, 0, 0, 0, 0, 0, 0, 0, 0, 0, 0, 0, 0, 0, 0, 0, 0, 0, 0, 0, 0, 0, 0, 0, 0, 0, 0, 0, 0, 0, 0, 0, 0, 0, 0, 0, 0, 0, 0, 0, 0, 0], [0, 0, 0, 0, 0, 0, 0, 0, 0, 0, 0, 0, 0, 0, 0, 0, 0, 0, 0, 0, 0, 0, 0, 0, 0, 0, 0, 0, 0, 0, 0, 0, 0, 0, 0, 0, 0, 0, 0, 0, 0, 0, 0, 0, 0, 0, 0, 0], [0, 0, 0, 0, 0, 0, 0, 0, 0, 0, 0, 0, 0, 0, 0, 0, 0, 0, 0, 0, 0, 0, 0, 0, 0, 0, 0, 0, 0, 0, 0, 0, 0, 0, 0, 0, 0, 0, 0, 0, 0, 0, 0, 0, 0, 0, 0, 0], [48, 30, 39, 36, 36, 46, 43, 48, 37, 35, 40, 31, 33, 36, 34, 38, 46, 49, 47, 34, 33, 45, 41, 50, 39, 38, 47, 32, 41, 38, 45, 40, 47, 37, 42, 41, 32, 44, 42, 42, 36, 31, 30, 41, 40, 38, 46, 46]], [[0, 0, 0, 0, 0, 0, 0, 0, 0, 0, 0, 0, 0, 0, 0, 0, 0, 0, 0, 0, 0, 0, 0, 0, 0, 0, 0, 0, 0, 0, 0, 0, 0, 0, 0, 0, 0, 0, 0, 0, 0, 0, 0, 0, 0, 0, 0, 0], [0, 0, 0, 0, 0, 0, 0, 0, 0, 0, 0, 0, 0, 0, 0, 0, 0, 0, 0, 0, 0, 0, 0, 0, 0, 0, 0, 0, 0, 0, 0, 0, 0, 0, 0, 0, 0, 0, 0, 0, 0, 0, 0, 0, 0, 0, 0, 0], [0, 0, 0, 0, 0, 0, 0, 0, 0, 0, 0, 0, 0, 0, 0, 0, 0, 0, 0, 0, 0, 0, 0, 0, 0, 0, 0, 0, 0, 0, 0, 0, 0, 0, 0, 0, 0, 0, 0, 0, 0, 0, 0, 0, 0, 0, 0, 0], [0, 0, 0, 0, 0, 0, 0, 0, 0, 0, 0, 0, 0, 0, 0, 0, 0, 0, 0, 0, 0, 0, 0, 0, 0, 0, 0, 0, 0, 0, 0, 0, 0, 0, 0, 0, 0, 0, 0, 0, 0, 0, 0, 0, 0, 0, 0, 0], [0, 0, 0, 0, 0, 0, 0, 0, 0, 0, 0, 0, 0, 0, 0, 0, 0, 0, 0, 0, 0, 0, 0, 0, 0, 0, 0, 0, 0, 0, 0, 0, 0, 0, 0, 0, 0, 0, 0, 0, 0, 0, 0, 0, 0, 0, 0, 0], [0, 0, 0, 0, 0, 0, 0, 0, 0, 0, 0, 0, 0, 0, 0, 0, 0, 0, 0, 0, 0, 0, 0, 0, 0, 0, 0, 0, 0, 0, 0, 0, 0, 0, 0, 0, 0, 0, 0, 0, 0, 0, 0, 0, 0, 0, 0, 0], [0, 0, 0, 0, 0, 0, 0, 0, 0, 0, 0, 0, 0, 0, 0, 0, 0, 0, 0, 0, 0, 0, 0, 0, 0, 0, 0, 0, 0, 0, 0, 0, 0, 0, 0, 0, 0, 0, 0, 0, 0, 0, 0, 0, 0, 0, 0, 0], [0, 0, 0, 0, 0, 0, 0, 0, 0, 0, 0, 0, 0, 0, 0, 0, 0, 0, 0, 0, 0, 0, 0, 0, 0, 0, 0, 0, 0, 0, 0, 0, 0, 0, 0, 0, 0, 0, 0, 0, 0, 0, 0, 0, 0, 0, 0, 0]]];

q = [[[7, 110], [6, 107], [8, 125], [6, 116], [13, 118], [16, 118], [9, 115], [14, 123], [15, 114], [5, 116], [10, 106], [6, 119], [10, 125], [7, 119], [11, 124], [10, 123], [13, 122], [7, 121], [11, 115], [11, 119], [9, 111], [15, 113], [10, 114], [11, 122], [10, 118], [14, 120], [16, 119], [7, 106], [12, 124], [12, 124], [7, 107], [11, 123], [15, 123], [16, 119], [11, 123], [8, 110], [13, 123], [10, 122], [5, 123], [7, 125], [6, 124], [9, 116], [6, 113], [5, 119], [11, 108], [9, 109], [13, 110], [10, 119]], [[10, 114], [7, 107], [5, 114], [10, 111], [16, 107], [14, 119], [15, 114], [10, 123], [16, 109], [15, 118], [16, 111], [16, 112], [5, 107], [12, 105], [16, 125], [6, 109], [12, 113], [12, 115], [10, 119], [9, 107], [15, 113], [11, 111], [13, 121], [8, 114], [12, 124], [10, 124], [13, 119], [14, 117], [12, 116], [13, 124], [9, 111], [7, 117], [8, 119], [14, 124], [6, 125], [14, 113], [15, 124], [12, 105], [10, 109], [9, 121], [7, 111], [7, 105], [9, 125], [16, 123], [6, 108], [5, 109], [13, 105], [13, 111]], [[16, 125], [8, 114], [13, 119], [16, 106], [16, 125], [11, 120], [5, 108], [14, 114], [10, 121], [5, 106], [12, 115], [13, 125], [12, 115], [15, 124], [16, 107], [5, 105], [16, 111], [5, 108], [15, 109], [6, 116], [7, 115], [9, 121], [13, 115], [13, 115], [11, 106], [9, 122], [14, 108], [13, 112], [8, 119], [12, 122], [5, 122], [13, 105], [8, 121], [9, 117], [14, 125], [7, 117], [13, 107], [14, 110], [8, 118], [9, 116], [14, 108], [14, 125], [12, 114], [10, 108], [10, 106], [5, 121], [14, 108], [8, 115]], [[15, 108], [7, 115], [5, 123], [7, 108], [14, 117], [15, 121], [12, 114], [6, 118], [5, 118], [9, 113], [13, 114], [16, 118], [10, 123], [6, 121], [15, 122], [9, 113], [15, 115], [5, 112], [16, 124], [6, 122], [11, 110], [13, 125], [15, 113], [8, 113], [13, 112], [9, 118], [12, 111], [13, 110], [14, 121], [15, 119], [12, 109], [14, 125], [8, 110], [14, 108], [6, 109], [12, 108], [15, 124], [8, 123], [12, 121], [5, 123], [10, 115], [6, 122], [14, 122], [7, 113], [16, 113], [14, 111], [10, 112], [9, 118]], [[8, 117], [10, 106], [9, 111], [14, 124], [7, 117], [10, 106], [7, 121], [12, 108], [10, 105], [13, 118], [16, 119], [5, 123], [14, 123], [15, 118], [7, 121], [12, 118], [16, 106], [13, 119], [11, 118], [10, 115], [5, 107], [10, 116], [15, 123], [10, 108], [8, 120], [5, 108], [8, 105], [7, 107], [6, 118], [6, 125], [6, 108], [15, 117], [7, 118], [6, 105], [14, 107], [12, 125], [9, 120], [6, 105], [6, 114], [16, 107], [12, 110], [15, 105], [15, 119], [10, 107], [8, 118], [16, 120], [7, 107], [5, 118]], [[13, 111], [9, 119], [11, 123], [13, 118], [5, 107], [8, 108], [13, 124], [7, 125], [10, 122], [8, 118], [10, 108], [11, 118], [5, 118], [15, 124], [14, 108], [6, 109], [8, 119], [13, 124], [8, 118], [8, 110], [9, 114], [12, 120], [6, 116], [11, 125], [15, 113], [6, 121], [15, 109], [7, 116], [16, 109], [16, 116], [13, 112], [16, 116], [8, 116], [15, 115], [7, 114], [5, 105], [15, 117], [11, 111], [12, 112], [5, 109], [11, 125], [13, 125], [12, 109], [9, 123], [10, 118], [7, 109], [10, 106], [13, 111]], [[16, 116], [15, 117], [14, 119], [10, 118], [8, 114], [14, 118], [8, 119], [11, 120], [11, 109], [8, 118], [11, 108], [8, 125], [16, 116], [8, 115], [12, 125], [8, 110], [16, 112], [12, 114], [15, 106], [12, 108], [6, 120], [9, 105], [11, 117], [5, 122], [5, 111], [8, 107], [16, 124], [16, 122], [7, 108], [14, 111], [11, 122], [7, 107], [11, 112], [14, 124], [15, 115], [8, 125], [13, 113], [14, 108], [11, 125], [7, 119], [12, 110], [16, 105], [6, 112], [12, 111], [8, 125], [15, 107], [11, 112], [14, 110]], [[12, 112], [13, 123], [7, 114], [14, 112], [7, 115], [10, 106], [5, 121], [7, 107], [8, 120], [5, 114], [8, 119], [9, 115], [10, 115], [16, 115], [6, 112], [5, 116], [9, 122], [5, 105], [15, 119], [12, 109], [7, 105], [13, 110], [10, 119], [16, 115], [9, 120], [10, 112], [16, 105], [5, 119], [16, 118], [11, 106], [7, 116], [10, 106], [16, 113], [8, 112], [15, 111], [6, 106], [10, 125], [12, 121], [12, 124], [7, 106], [7, 109], [13, 106], [5, 106], [11, 108], [15, 124], [8, 106], [10, 125], [6, 108]]];
Q = [[48, 565], [53, 551], [52, 552], [52, 558], [48, 548], [50, 555], [53, 552], [47, 546]];
